&inputph
	tr2_ph=1.0d-10,
	prefix='GaAs',
	amass(1)=69.723,
	fildyn='dyn',
	ldisp=.true.
	nq1=2, nq2=2, nq3=2,
/
