&inputph
	tr2_ph=1.0d-10,
	prefix='Al',
	amass(1)=26.9815,
	fildyn='dyn',
	ldisp=.true.
	nq1=2, nq2=2, nq3=2,
/
