Phonons of Si

&INPUTPH
  prefix = 'Si',
  ldisp = .true.,
  amass(1) = 28.086,
  fildyn = 'dyn',
  nq1 = 2,
  nq2 = 2,
  nq3 = 2,
  tr2_ph = 1.0d-14,
/

