Phonons of Si

&INPUTPH
  prefix = 'Si',
  ldisp = .true.,
  amass(1) = 28.086,
  fildyn = 'dyn',
  nq1 = 4,
  nq2 = 4,
  nq3 = 4,
  tr2_ph = 1.0d-14,
/

