&BANDS
  prefix='Si',
  filband='siliconbands.dat',
  lsym=.true.,
/

