&inputpp
  prefix = 'Si',
  calculation = 'eps',
/
&energy_grid
  smeartype = 'gauss',
  intersmear = 0.2,
  wmin = 0.0,
  wmax = 30.0,
  nw = 500,
  shift=0.0d0,
/

