&BANDS
  prefix='Si',
  filband='Si.Bands.dat',
  lsym=.true.,
/

