&INPUT
  fildyn = 'dyn',
  flfrc = 'Si.fc',
/
