&CONTROL
  title = 'SiO2',
  calculation = 'scf'
  prefix = 'SiO2',
  pseudo_dir = '../QE-Calculator/Pseudo-Potential/',
  tprnfor = .true.
  tstress = .true.
  verbosity = 'high'
/

&SYSTEM
  ecutwfc = 40,
  ibrav = 0
  nat = 9
  ntyp = 2
/

&ELECTRONS
  mixing_beta =  0.7
/

ATOMIC_SPECIES
O      15.9994 O.pz-rrkjus.UPF
Si     28.0855 Si.pz-vbc.UPF

ATOMIC_POSITIONS {crystal}
Si           0.4700000000      -0.0000000000       0.6666700000 
Si           0.0000000000       0.4700000000       0.3333300000 
Si           0.5300000000       0.5300000000       0.0000000000 
O            0.4146000000       0.2678000000       0.7854300000 
O            0.2678000000       0.4146000000       0.2145700000 
O            0.7322000000       0.1468000000       0.4520966667 
O            0.5854000000       0.8532000000       0.8812366667 
O            0.8532000000       0.5854000000       0.1187633333 
O            0.1468000000       0.7322000000       0.5479033333

CELL_PARAMETERS {angstrom}
      4.9134370000       0.0000000000       0.0000000000
     -2.4567185000       4.2551612619       0.0000000000
      0.0000000000       0.0000000000       5.4051180000

K_POINTS {automatic}
4 4 4 0 0 0
